NAME          DCAP_2_3_3_500_SS373
ROWS
 N  OBJ
 L  CON1
 L  CON2
 L  CON3
 L  CON4
 L  CON5
 L  CON6
 L  CON7
 L  CON8
 L  CON9
 L  CON10
 L  CON11
 L  CON12
 E  CON13
 E  CON14
 E  CON15
 E  CON16
 E  CON17
 E  CON18
 E  CON19
 E  CON20
 E  CON21
COLUMNS
    x[1,1]    OBJ       6.180167      CON1      1.000000    
    x[1,1]    CON7      -1.000000     CON8      -1.000000   
    x[1,1]    CON9      -1.000000   
    x[1,2]    OBJ       6.563535      CON2      1.000000    
    x[1,2]    CON8      -1.000000     CON9      -1.000000   
    x[1,3]    OBJ       7.443064      CON3      1.000000    
    x[1,3]    CON9      -1.000000   
    x[2,1]    OBJ       6.732585      CON4      1.000000    
    x[2,1]    CON10     -1.000000     CON11     -1.000000   
    x[2,1]    CON12     -1.000000   
    x[2,2]    OBJ       5.039546      CON5      1.000000    
    x[2,2]    CON11     -1.000000     CON12     -1.000000   
    x[2,3]    OBJ       6.054841      CON6      1.000000    
    x[2,3]    CON12     -1.000000   
    MARKER    'MARKER'                'INTORG'
    u[1,1]    OBJ       48.076654     CON1      -1.000000   
    u[1,2]    OBJ       20.066487     CON2      -1.000000   
    u[1,3]    OBJ       32.230043     CON3      -1.000000   
    u[2,1]    OBJ       49.996186     CON4      -1.000000   
    u[2,2]    OBJ       49.466655     CON5      -1.000000   
    u[2,3]    OBJ       27.484319     CON6      -1.000000   
    y[1,1,1]  OBJ       9.644688      CON7      0.881524    
    y[1,1,1]  CON13     1.000000    
    y[1,1,2]  OBJ       7.110703      CON8      0.949585    
    y[1,1,2]  CON14     1.000000    
    y[1,1,3]  OBJ       6.530098      CON9      1.418171    
    y[1,1,3]  CON15     1.000000    
    y[1,2,1]  OBJ       5.847649      CON7      1.012575    
    y[1,2,1]  CON16     1.000000    
    y[1,2,2]  OBJ       9.668697      CON8      1.383858    
    y[1,2,2]  CON17     1.000000    
    y[1,2,3]  OBJ       8.351792      CON9      0.571337    
    y[1,2,3]  CON18     1.000000    
    y[1,3,1]  OBJ       5.973878      CON7      1.448724    
    y[1,3,1]  CON19     1.000000    
    y[1,3,2]  OBJ       6.736326      CON8      1.272674    
    y[1,3,2]  CON20     1.000000    
    y[1,3,3]  OBJ       8.679812      CON9      0.809025    
    y[1,3,3]  CON21     1.000000    
    y[2,1,1]  OBJ       8.998287      CON10     0.881524    
    y[2,1,1]  CON13     1.000000    
    y[2,1,2]  OBJ       8.280459      CON11     0.949585    
    y[2,1,2]  CON14     1.000000    
    y[2,1,3]  OBJ       6.349345      CON12     1.418171    
    y[2,1,3]  CON15     1.000000    
    y[2,2,1]  OBJ       5.794291      CON10     1.012575    
    y[2,2,1]  CON16     1.000000    
    y[2,2,2]  OBJ       6.576838      CON11     1.383858    
    y[2,2,2]  CON17     1.000000    
    y[2,2,3]  OBJ       8.495623      CON12     0.571337    
    y[2,2,3]  CON18     1.000000    
    y[2,3,1]  OBJ       8.026104      CON10     1.448724    
    y[2,3,1]  CON19     1.000000    
    y[2,3,2]  OBJ       9.842013      CON11     1.272674    
    y[2,3,2]  CON20     1.000000    
    y[2,3,3]  OBJ       5.306535      CON12     0.809025    
    y[2,3,3]  CON21     1.000000    
    z[1,1]    OBJ       976.779098    CON13     1.000000    
    z[1,2]    OBJ       760.056825    CON14     1.000000    
    z[1,3]    OBJ       632.945190    CON15     1.000000    
    z[2,1]    OBJ       722.498757    CON16     1.000000    
    z[2,2]    OBJ       932.290770    CON17     1.000000    
    z[2,3]    OBJ       517.169433    CON18     1.000000    
    z[3,1]    OBJ       598.241047    CON19     1.000000    
    z[3,2]    OBJ       880.343649    CON20     1.000000    
    z[3,3]    OBJ       941.866298    CON21     1.000000    
    MARKER    'MARKER'                 'INTEND'
RHS
    RHS       CON1      -0.000000     CON2      -0.000000   
    RHS       CON3      -0.000000     CON4      -0.000000   
    RHS       CON5      -0.000000     CON6      -0.000000   
    RHS       CON7      -0.000000     CON8      -0.000000   
    RHS       CON9      -0.000000     CON10     -0.000000   
    RHS       CON11     -0.000000     CON12     -0.000000   
    RHS       CON13     1.000000      CON14     1.000000    
    RHS       CON15     1.000000      CON16     1.000000    
    RHS       CON17     1.000000      CON18     1.000000    
    RHS       CON19     1.000000      CON20     1.000000    
    RHS       CON21     1.000000    
BOUNDS
 BV BOUND     u[1,1]  
 BV BOUND     u[1,2]  
 BV BOUND     u[1,3]  
 BV BOUND     u[2,1]  
 BV BOUND     u[2,2]  
 BV BOUND     u[2,3]  
 BV BOUND     y[1,1,1]
 BV BOUND     y[1,1,2]
 BV BOUND     y[1,1,3]
 BV BOUND     y[1,2,1]
 BV BOUND     y[1,2,2]
 BV BOUND     y[1,2,3]
 BV BOUND     y[1,3,1]
 BV BOUND     y[1,3,2]
 BV BOUND     y[1,3,3]
 BV BOUND     y[2,1,1]
 BV BOUND     y[2,1,2]
 BV BOUND     y[2,1,3]
 BV BOUND     y[2,2,1]
 BV BOUND     y[2,2,2]
 BV BOUND     y[2,2,3]
 BV BOUND     y[2,3,1]
 BV BOUND     y[2,3,2]
 BV BOUND     y[2,3,3]
 BV BOUND     z[1,1]  
 BV BOUND     z[1,2]  
 BV BOUND     z[1,3]  
 BV BOUND     z[2,1]  
 BV BOUND     z[2,2]  
 BV BOUND     z[2,3]  
 BV BOUND     z[3,1]  
 BV BOUND     z[3,2]  
 BV BOUND     z[3,3]  
ENDATA
